70
1 0 8
2 0 17
2 1 28
3 0 35
3 1 39
3 2 7
4 0 22
4 1 7
4 2 22
4 3 23
5 0 28
5 1 14
5 2 12
5 3 10
5 4 18
6 0 13
6 1 1
6 2 2
6 3 9
6 4 4
6 5 16
7 0 36
7 1 35
7 2 9
7 3 27
7 4 1
7 5 32
7 6 34
8 0 7
8 1 38
8 2 28
8 3 21
8 4 24
8 5 6
8 6 31
8 7 32
9 0 24
9 1 15
9 2 24
9 3 17
9 4 32
9 5 1
9 6 6
9 7 17
9 8 38
10 0 28
10 1 15
10 2 25
10 3 23
10 4 15
10 5 29
10 6 5
10 7 39
10 8 30
10 9 16
11 0 2
11 1 37
11 2 30
11 3 36
11 4 26
11 5 19
11 6 39
11 7 19
11 8 38
11 9 37
11 10 7
12 0 28
12 1 16
12 2 29
12 3 1
12 4 32
12 5 28
12 6 37
12 7 10
12 8 31
12 9 25
12 10 11
12 11 3
13 0 17
13 1 3
13 2 20
13 3 13
13 4 23
13 5 7
13 6 30
13 7 9
13 8 28
13 9 14
13 10 28
13 11 35
13 12 2
14 0 23
14 1 36
14 2 32
14 3 11
14 4 24
14 5 29
14 6 6
14 7 6
14 8 14
14 9 28
14 10 26
14 11 6
14 12 1
14 13 32
15 0 39
15 1 21
15 2 28
15 3 30
15 4 15
15 5 5
15 6 15
15 7 34
15 8 31
15 9 35
15 10 25
15 11 22
15 12 22
15 13 20
15 14 19
16 0 1
16 1 33
16 2 37
16 3 7
16 4 9
16 5 32
16 6 36
16 7 34
16 8 9
16 9 25
16 10 29
16 11 11
16 12 5
16 13 39
16 14 26
16 15 11
17 0 17
17 1 29
17 2 25
17 3 22
17 4 33
17 5 7
17 6 4
17 7 28
17 8 36
17 9 13
17 10 24
17 11 38
17 12 1
17 13 34
17 14 22
17 15 37
17 16 19
18 0 22
18 1 16
18 2 9
18 3 32
18 4 25
18 5 5
18 6 29
18 7 19
18 8 23
18 9 31
18 10 4
18 11 33
18 12 16
18 13 7
18 14 24
18 15 26
18 16 10
18 17 26
19 0 17
19 1 35
19 2 3
19 3 29
19 4 1
19 5 5
19 6 24
19 7 22
19 8 7
19 9 16
19 10 25
19 11 18
19 12 25
19 13 1
19 14 36
19 15 27
19 16 5
19 17 12
19 18 26
20 0 24
20 1 14
20 2 3
20 3 25
20 4 15
20 5 20
20 6 28
20 7 14
20 8 22
20 9 32
20 10 10
20 11 34
20 12 15
20 13 19
20 14 5
20 15 3
20 16 12
20 17 29
20 18 2
20 19 27
21 0 3
21 1 9
21 2 21
21 3 5
21 4 22
21 5 15
21 6 35
21 7 2
21 8 2
21 9 13
21 10 28
21 11 14
21 12 25
21 13 13
21 14 8
21 15 25
21 16 11
21 17 15
21 18 29
21 19 30
21 20 7
22 0 32
22 1 28
22 2 35
22 3 24
22 4 3
22 5 21
22 6 37
22 7 31
22 8 28
22 9 7
22 10 19
22 11 7
22 12 19
22 13 26
22 14 30
22 15 37
22 16 11
22 17 22
22 18 35
22 19 34
22 20 29
22 21 8
23 0 28
23 1 10
23 2 3
23 3 18
23 4 38
23 5 26
23 6 4
23 7 30
23 8 15
23 9 9
23 10 38
23 11 7
23 12 3
23 13 8
23 14 10
23 15 29
23 16 28
23 17 28
23 18 2
23 19 37
23 20 9
23 21 12
23 22 39
24 0 20
24 1 20
24 2 8
24 3 3
24 4 23
24 5 14
24 6 17
24 7 5
24 8 2
24 9 25
24 10 3
24 11 17
24 12 31
24 13 40
24 14 7
24 15 2
24 16 20
24 17 9
24 18 12
24 19 21
24 20 15
24 21 3
24 22 35
24 23 6
25 0 35
25 1 40
25 2 6
25 3 14
25 4 20
25 5 32
25 6 11
25 7 1
25 8 39
25 9 12
25 10 21
25 11 25
25 12 23
25 13 1
25 14 36
25 15 23
25 16 23
25 17 12
25 18 6
25 19 30
25 20 13
25 21 20
25 22 33
25 23 39
25 24 15
26 0 2
26 1 22
26 2 4
26 3 21
26 4 25
26 5 10
26 6 15
26 7 24
26 8 20
26 9 27
26 10 40
26 11 30
26 12 5
26 13 9
26 14 16
26 15 11
26 16 20
26 17 17
26 18 14
26 19 4
26 20 12
26 21 8
26 22 32
26 23 38
26 24 29
26 25 37
27 0 27
27 1 18
27 2 39
27 3 33
27 4 15
27 5 20
27 6 27
27 7 15
27 8 38
27 9 7
27 10 7
27 11 22
27 12 13
27 13 38
27 14 13
27 15 4
27 16 33
27 17 9
27 18 28
27 19 19
27 20 39
27 21 23
27 22 9
27 23 31
27 24 20
27 25 18
27 26 40
28 0 39
28 1 24
28 2 9
28 3 40
28 4 4
28 5 10
28 6 22
28 7 6
28 8 24
28 9 39
28 10 17
28 11 13
28 12 22
28 13 19
28 14 9
28 15 10
28 16 28
28 17 32
28 18 6
28 19 16
28 20 19
28 21 9
28 22 38
28 23 34
28 24 17
28 25 35
28 26 7
28 27 31
29 0 26
29 1 25
29 2 31
29 3 26
29 4 14
29 5 11
29 6 6
29 7 31
29 8 24
29 9 17
29 10 39
29 11 13
29 12 21
29 13 2
29 14 12
29 15 11
29 16 37
29 17 20
29 18 28
29 19 30
29 20 4
29 21 10
29 22 27
29 23 38
29 24 3
29 25 34
29 26 12
29 27 8
29 28 20
30 0 6
30 1 7
30 2 3
30 3 7
30 4 4
30 5 31
30 6 37
30 7 1
30 8 40
30 9 4
30 10 26
30 11 18
30 12 21
30 13 39
30 14 34
30 15 40
30 16 36
30 17 21
30 18 38
30 19 19
30 20 37
30 21 32
30 22 19
30 23 26
30 24 7
30 25 3
30 26 33
30 27 6
30 28 32
30 29 4
31 0 4
31 1 1
31 2 39
31 3 21
31 4 3
31 5 25
31 6 12
31 7 32
31 8 4
31 9 40
31 10 12
31 11 1
31 12 22
31 13 27
31 14 22
31 15 23
31 16 16
31 17 13
31 18 9
31 19 33
31 20 23
31 21 5
31 22 34
31 23 25
31 24 19
31 25 22
31 26 26
31 27 36
31 28 36
31 29 38
31 30 4
32 0 12
32 1 40
32 2 8
32 3 6
32 4 38
32 5 2
32 6 4
32 7 9
32 8 23
32 9 13
32 10 27
32 11 13
32 12 11
32 13 9
32 14 6
32 15 28
32 16 18
32 17 22
32 18 20
32 19 21
32 20 3
32 21 19
32 22 28
32 23 6
32 24 12
32 25 18
32 26 10
32 27 25
32 28 22
32 29 23
32 30 22
32 31 6
33 0 2
33 1 36
33 2 35
33 3 19
33 4 30
33 5 8
33 6 24
33 7 30
33 8 8
33 9 8
33 10 23
33 11 18
33 12 24
33 13 22
33 14 26
33 15 26
33 16 35
33 17 3
33 18 9
33 19 20
33 20 8
33 21 19
33 22 33
33 23 36
33 24 29
33 25 7
33 26 15
33 27 14
33 28 13
33 29 5
33 30 32
33 31 1
33 32 21
34 0 26
34 1 22
34 2 6
34 3 29
34 4 36
34 5 33
34 6 5
34 7 4
34 8 3
34 9 14
34 10 18
34 11 39
34 12 40
34 13 26
34 14 2
34 15 28
34 16 12
34 17 33
34 18 21
34 19 8
34 20 14
34 21 32
34 22 24
34 23 18
34 24 37
34 25 24
34 26 34
34 27 6
34 28 2
34 29 10
34 30 2
34 31 34
34 32 21
34 33 13
35 0 11
35 1 7
35 2 5
35 3 8
35 4 15
35 5 34
35 6 19
35 7 28
35 8 5
35 9 22
35 10 1
35 11 8
35 12 36
35 13 2
35 14 29
35 15 3
35 16 37
35 17 35
35 18 8
35 19 23
35 20 33
35 21 32
35 22 35
35 23 23
35 24 9
35 25 24
35 26 23
35 27 2
35 28 1
35 29 40
35 30 19
35 31 26
35 32 5
35 33 29
35 34 38
36 0 26
36 1 24
36 2 2
36 3 21
36 4 7
36 5 22
36 6 23
36 7 18
36 8 38
36 9 37
36 10 18
36 11 5
36 12 6
36 13 20
36 14 35
36 15 36
36 16 23
36 17 18
36 18 20
36 19 17
36 20 33
36 21 7
36 22 32
36 23 1
36 24 30
36 25 30
36 26 29
36 27 24
36 28 16
36 29 23
36 30 9
36 31 35
36 32 22
36 33 22
36 34 15
36 35 14
37 0 10
37 1 22
37 2 9
37 3 37
37 4 39
37 5 4
37 6 25
37 7 11
37 8 21
37 9 37
37 10 21
37 11 15
37 12 25
37 13 4
37 14 32
37 15 29
37 16 25
37 17 10
37 18 10
37 19 7
37 20 16
37 21 14
37 22 18
37 23 22
37 24 27
37 25 26
37 26 30
37 27 8
37 28 28
37 29 37
37 30 15
37 31 17
37 32 1
37 33 4
37 34 25
37 35 11
37 36 26
38 0 35
38 1 16
38 2 5
38 3 38
38 4 3
38 5 31
38 6 9
38 7 36
38 8 25
38 9 10
38 10 1
38 11 39
38 12 17
38 13 33
38 14 31
38 15 11
38 16 31
38 17 6
38 18 38
38 19 30
38 20 29
38 21 14
38 22 23
38 23 5
38 24 30
38 25 14
38 26 5
38 27 14
38 28 29
38 29 24
38 30 38
38 31 28
38 32 29
38 33 26
38 34 10
38 35 8
38 36 19
38 37 5
39 0 37
39 1 33
39 2 16
39 3 29
39 4 3
39 5 19
39 6 16
39 7 26
39 8 33
39 9 35
39 10 5
39 11 12
39 12 31
39 13 38
39 14 2
39 15 5
39 16 8
39 17 3
39 18 35
39 19 15
39 20 37
39 21 21
39 22 36
39 23 30
39 24 16
39 25 35
39 26 20
39 27 7
39 28 15
39 29 5
39 30 29
39 31 16
39 32 14
39 33 37
39 34 32
39 35 7
39 36 22
39 37 7
39 38 2
40 0 39
40 1 4
40 2 34
40 3 4
40 4 30
40 5 31
40 6 24
40 7 8
40 8 39
40 9 18
40 10 35
40 11 13
40 12 4
40 13 1
40 14 15
40 15 20
40 16 11
40 17 20
40 18 5
40 19 33
40 20 25
40 21 25
40 22 20
40 23 36
40 24 35
40 25 5
40 26 30
40 27 26
40 28 27
40 29 16
40 30 23
40 31 31
40 32 6
40 33 16
40 34 32
40 35 15
40 36 27
40 37 33
40 38 36
40 39 14
41 0 27
41 1 4
41 2 32
41 3 30
41 4 28
41 5 23
41 6 1
41 7 5
41 8 32
41 9 38
41 10 12
41 11 23
41 12 16
41 13 2
41 14 36
41 15 37
41 16 40
41 17 4
41 18 36
41 19 19
41 20 10
41 21 16
41 22 19
41 23 40
41 24 16
41 25 7
41 26 13
41 27 2
41 28 18
41 29 19
41 30 33
41 31 31
41 32 23
41 33 34
41 34 5
41 35 30
41 36 32
41 37 8
41 38 37
41 39 23
41 40 20
42 0 28
42 1 5
42 2 6
42 3 21
42 4 38
42 5 28
42 6 1
42 7 13
42 8 25
42 9 27
42 10 3
42 11 33
42 12 15
42 13 35
42 14 21
42 15 36
42 16 30
42 17 32
42 18 40
42 19 19
42 20 8
42 21 2
42 22 9
42 23 30
42 24 27
42 25 34
42 26 14
42 27 14
42 28 14
42 29 25
42 30 8
42 31 29
42 32 13
42 33 5
42 34 40
42 35 24
42 36 14
42 37 35
42 38 3
42 39 22
42 40 6
42 41 11
43 0 33
43 1 3
43 2 30
43 3 37
43 4 35
43 5 24
43 6 31
43 7 15
43 8 14
43 9 10
43 10 33
43 11 35
43 12 14
43 13 26
43 14 8
43 15 28
43 16 16
43 17 20
43 18 29
43 19 33
43 20 15
43 21 7
43 22 17
43 23 22
43 24 40
43 25 29
43 26 13
43 27 39
43 28 3
43 29 10
43 30 16
43 31 21
43 32 5
43 33 16
43 34 32
43 35 32
43 36 34
43 37 2
43 38 27
43 39 32
43 40 31
43 41 8
43 42 3
44 0 3
44 1 3
44 2 10
44 3 10
44 4 2
44 5 38
44 6 24
44 7 26
44 8 5
44 9 35
44 10 25
44 11 4
44 12 7
44 13 32
44 14 12
44 15 20
44 16 1
44 17 21
44 18 35
44 19 1
44 20 30
44 21 32
44 22 32
44 23 12
44 24 23
44 25 31
44 26 20
44 27 1
44 28 17
44 29 3
44 30 20
44 31 33
44 32 34
44 33 1
44 34 29
44 35 1
44 36 31
44 37 29
44 38 40
44 39 22
44 40 5
44 41 10
44 42 36
44 43 10
45 0 13
45 1 14
45 2 4
45 3 14
45 4 14
45 5 31
45 6 27
45 7 32
45 8 34
45 9 20
45 10 31
45 11 27
45 12 10
45 13 2
45 14 23
45 15 39
45 16 1
45 17 15
45 18 6
45 19 22
45 20 29
45 21 38
45 22 22
45 23 31
45 24 9
45 25 16
45 26 4
45 27 11
45 28 6
45 29 10
45 30 30
45 31 4
45 32 29
45 33 6
45 34 39
45 35 29
45 36 26
45 37 21
45 38 21
45 39 6
45 40 3
45 41 5
45 42 9
45 43 21
45 44 19
46 0 17
46 1 17
46 2 25
46 3 29
46 4 28
46 5 27
46 6 31
46 7 18
46 8 5
46 9 11
46 10 39
46 11 2
46 12 6
46 13 2
46 14 22
46 15 8
46 16 11
46 17 33
46 18 19
46 19 18
46 20 32
46 21 39
46 22 7
46 23 29
46 24 9
46 25 37
46 26 20
46 27 39
46 28 7
46 29 15
46 30 3
46 31 26
46 32 19
46 33 15
46 34 17
46 35 39
46 36 12
46 37 11
46 38 17
46 39 36
46 40 27
46 41 22
46 42 33
46 43 5
46 44 38
46 45 33
47 0 16
47 1 39
47 2 28
47 3 20
47 4 14
47 5 28
47 6 13
47 7 2
47 8 15
47 9 19
47 10 14
47 11 33
47 12 29
47 13 11
47 14 10
47 15 27
47 16 20
47 17 27
47 18 1
47 19 3
47 20 26
47 21 13
47 22 3
47 23 19
47 24 10
47 25 40
47 26 5
47 27 36
47 28 29
47 29 21
47 30 4
47 31 4
47 32 20
47 33 23
47 34 16
47 35 33
47 36 5
47 37 37
47 38 24
47 39 6
47 40 21
47 41 32
47 42 40
47 43 24
47 44 21
47 45 34
47 46 15
48 0 27
48 1 14
48 2 36
48 3 21
48 4 9
48 5 30
48 6 20
48 7 39
48 8 10
48 9 11
48 10 24
48 11 27
48 12 29
48 13 22
48 14 14
48 15 19
48 16 3
48 17 27
48 18 26
48 19 39
48 20 17
48 21 4
48 22 21
48 23 30
48 24 37
48 25 31
48 26 21
48 27 6
48 28 35
48 29 33
48 30 21
48 31 17
48 32 1
48 33 39
48 34 6
48 35 18
48 36 23
48 37 30
48 38 4
48 39 18
48 40 32
48 41 6
48 42 17
48 43 28
48 44 7
48 45 5
48 46 29
48 47 2
49 0 21
49 1 6
49 2 2
49 3 14
49 4 15
49 5 37
49 6 36
49 7 23
49 8 34
49 9 24
49 10 10
49 11 5
49 12 21
49 13 10
49 14 3
49 15 23
49 16 11
49 17 38
49 18 16
49 19 28
49 20 32
49 21 27
49 22 29
49 23 29
49 24 19
49 25 22
49 26 37
49 27 5
49 28 1
49 29 27
49 30 22
49 31 11
49 32 21
49 33 4
49 34 38
49 35 4
49 36 7
49 37 35
49 38 8
49 39 38
49 40 37
49 41 10
49 42 11
49 43 1
49 44 22
49 45 16
49 46 6
49 47 25
49 48 34
50 0 16
50 1 36
50 2 3
50 3 17
50 4 38
50 5 27
50 6 16
50 7 31
50 8 24
50 9 10
50 10 31
50 11 27
50 12 5
50 13 23
50 14 18
50 15 20
50 16 2
50 17 26
50 18 30
50 19 24
50 20 16
50 21 18
50 22 9
50 23 31
50 24 6
50 25 20
50 26 2
50 27 35
50 28 17
50 29 40
50 30 20
50 31 35
50 32 19
50 33 40
50 34 22
50 35 28
50 36 34
50 37 3
50 38 28
50 39 3
50 40 15
50 41 4
50 42 34
50 43 37
50 44 22
50 45 7
50 46 7
50 47 4
50 48 6
50 49 18
51 0 16
51 1 25
51 2 15
51 3 9
51 4 25
51 5 15
51 6 10
51 7 18
51 8 2
51 9 18
51 10 9
51 11 26
51 12 23
51 13 7
51 14 32
51 15 39
51 16 34
51 17 21
51 18 34
51 19 22
51 20 38
51 21 28
51 22 4
51 23 26
51 24 15
51 25 40
51 26 28
51 27 16
51 28 29
51 29 3
51 30 30
51 31 27
51 32 37
51 33 12
51 34 28
51 35 31
51 36 27
51 37 4
51 38 20
51 39 38
51 40 28
51 41 1
51 42 4
51 43 24
51 44 5
51 45 7
51 46 29
51 47 2
51 48 29
51 49 14
51 50 40
52 0 12
52 1 39
52 2 32
52 3 30
52 4 18
52 5 18
52 6 16
52 7 6
52 8 28
52 9 19
52 10 6
52 11 27
52 12 16
52 13 22
52 14 28
52 15 21
52 16 29
52 17 23
52 18 21
52 19 9
52 20 9
52 21 8
52 22 1
52 23 37
52 24 31
52 25 30
52 26 29
52 27 37
52 28 12
52 29 14
52 30 6
52 31 17
52 32 37
52 33 18
52 34 6
52 35 13
52 36 15
52 37 31
52 38 32
52 39 39
52 40 39
52 41 13
52 42 2
52 43 27
52 44 24
52 45 5
52 46 35
52 47 31
52 48 6
52 49 26
52 50 17
52 51 20
53 0 30
53 1 16
53 2 25
53 3 29
53 4 20
53 5 28
53 6 2
53 7 26
53 8 18
53 9 34
53 10 7
53 11 28
53 12 17
53 13 18
53 14 7
53 15 16
53 16 19
53 17 4
53 18 39
53 19 40
53 20 18
53 21 2
53 22 11
53 23 36
53 24 32
53 25 22
53 26 24
53 27 20
53 28 13
53 29 30
53 30 24
53 31 24
53 32 5
53 33 17
53 34 18
53 35 39
53 36 14
53 37 16
53 38 29
53 39 7
53 40 36
53 41 25
53 42 1
53 43 8
53 44 37
53 45 27
53 46 33
53 47 14
53 48 34
53 49 18
53 50 29
53 51 8
53 52 22
54 0 30
54 1 5
54 2 8
54 3 8
54 4 13
54 5 16
54 6 11
54 7 33
54 8 22
54 9 33
54 10 19
54 11 40
54 12 37
54 13 26
54 14 2
54 15 3
54 16 29
54 17 17
54 18 12
54 19 21
54 20 29
54 21 17
54 22 23
54 23 31
54 24 39
54 25 18
54 26 35
54 27 28
54 28 30
54 29 29
54 30 9
54 31 30
54 32 10
54 33 19
54 34 22
54 35 16
54 36 29
54 37 21
54 38 26
54 39 9
54 40 7
54 41 31
54 42 38
54 43 40
54 44 24
54 45 27
54 46 27
54 47 19
54 48 21
54 49 40
54 50 25
54 51 28
54 52 14
54 53 9
55 0 5
55 1 14
55 2 29
55 3 28
55 4 17
55 5 2
55 6 1
55 7 18
55 8 28
55 9 27
55 10 18
55 11 33
55 12 21
55 13 18
55 14 15
55 15 25
55 16 22
55 17 7
55 18 15
55 19 34
55 20 14
55 21 25
55 22 21
55 23 12
55 24 9
55 25 13
55 26 38
55 27 11
55 28 40
55 29 4
55 30 6
55 31 9
55 32 9
55 33 40
55 34 10
55 35 21
55 36 20
55 37 33
55 38 1
55 39 7
55 40 24
55 41 32
55 42 34
55 43 2
55 44 26
55 45 27
55 46 25
55 47 36
55 48 24
55 49 7
55 50 4
55 51 7
55 52 32
55 53 5
55 54 23
56 0 17
56 1 10
56 2 13
56 3 36
56 4 40
56 5 39
56 6 26
56 7 30
56 8 8
56 9 27
56 10 37
56 11 6
56 12 38
56 13 7
56 14 24
56 15 15
56 16 28
56 17 33
56 18 19
56 19 35
56 20 19
56 21 34
56 22 25
56 23 38
56 24 35
56 25 27
56 26 24
56 27 31
56 28 19
56 29 24
56 30 17
56 31 34
56 32 2
56 33 29
56 34 38
56 35 15
56 36 29
56 37 7
56 38 19
56 39 1
56 40 27
56 41 7
56 42 3
56 43 32
56 44 2
56 45 16
56 46 26
56 47 9
56 48 16
56 49 18
56 50 30
56 51 11
56 52 25
56 53 31
56 54 35
56 55 11
57 0 13
57 1 8
57 2 19
57 3 33
57 4 37
57 5 29
57 6 3
57 7 4
57 8 7
57 9 26
57 10 14
57 11 39
57 12 29
57 13 25
57 14 29
57 15 26
57 16 35
57 17 29
57 18 3
57 19 31
57 20 35
57 21 19
57 22 29
57 23 20
57 24 5
57 25 6
57 26 15
57 27 22
57 28 11
57 29 10
57 30 5
57 31 20
57 32 7
57 33 21
57 34 20
57 35 40
57 36 6
57 37 7
57 38 4
57 39 1
57 40 26
57 41 14
57 42 12
57 43 10
57 44 36
57 45 14
57 46 20
57 47 13
57 48 28
57 49 39
57 50 7
57 51 6
57 52 14
57 53 18
57 54 3
57 55 14
57 56 1
58 0 28
58 1 26
58 2 14
58 3 8
58 4 30
58 5 38
58 6 34
58 7 19
58 8 18
58 9 38
58 10 32
58 11 2
58 12 15
58 13 35
58 14 35
58 15 7
58 16 32
58 17 4
58 18 3
58 19 29
58 20 24
58 21 33
58 22 15
58 23 20
58 24 28
58 25 3
58 26 38
58 27 5
58 28 19
58 29 10
58 30 25
58 31 21
58 32 11
58 33 12
58 34 36
58 35 9
58 36 29
58 37 29
58 38 13
58 39 7
58 40 23
58 41 17
58 42 37
58 43 31
58 44 24
58 45 5
58 46 24
58 47 6
58 48 10
58 49 18
58 50 4
58 51 3
58 52 13
58 53 19
58 54 2
58 55 5
58 56 5
58 57 35
59 0 24
59 1 20
59 2 13
59 3 5
59 4 5
59 5 7
59 6 37
59 7 20
59 8 17
59 9 2
59 10 38
59 11 24
59 12 39
59 13 8
59 14 27
59 15 40
59 16 25
59 17 22
59 18 16
59 19 32
59 20 22
59 21 20
59 22 16
59 23 15
59 24 7
59 25 8
59 26 24
59 27 36
59 28 36
59 29 30
59 30 17
59 31 40
59 32 11
59 33 17
59 34 26
59 35 27
59 36 7
59 37 25
59 38 36
59 39 24
59 40 18
59 41 7
59 42 6
59 43 14
59 44 21
59 45 7
59 46 5
59 47 37
59 48 5
59 49 28
59 50 37
59 51 37
59 52 24
59 53 32
59 54 39
59 55 4
59 56 28
59 57 23
59 58 40
60 0 7
60 1 12
60 2 29
60 3 3
60 4 2
60 5 14
60 6 10
60 7 20
60 8 38
60 9 37
60 10 19
60 11 9
60 12 9
60 13 15
60 14 32
60 15 4
60 16 11
60 17 21
60 18 20
60 19 14
60 20 24
60 21 1
60 22 17
60 23 19
60 24 22
60 25 29
60 26 37
60 27 1
60 28 2
60 29 2
60 30 36
60 31 40
60 32 33
60 33 28
60 34 26
60 35 11
60 36 29
60 37 31
60 38 31
60 39 28
60 40 1
60 41 32
60 42 8
60 43 34
60 44 1
60 45 28
60 46 32
60 47 13
60 48 7
60 49 1
60 50 4
60 51 7
60 52 23
60 53 29
60 54 32
60 55 30
60 56 29
60 57 16
60 58 7
60 59 16
61 0 26
61 1 2
61 2 34
61 3 17
61 4 34
61 5 9
61 6 5
61 7 13
61 8 32
61 9 20
61 10 3
61 11 9
61 12 33
61 13 33
61 14 3
61 15 13
61 16 27
61 17 22
61 18 19
61 19 13
61 20 6
61 21 29
61 22 20
61 23 9
61 24 10
61 25 33
61 26 24
61 27 14
61 28 10
61 29 38
61 30 2
61 31 4
61 32 12
61 33 10
61 34 6
61 35 33
61 36 21
61 37 35
61 38 29
61 39 2
61 40 37
61 41 36
61 42 16
61 43 27
61 44 1
61 45 9
61 46 3
61 47 1
61 48 30
61 49 4
61 50 25
61 51 1
61 52 25
61 53 22
61 54 23
61 55 16
61 56 1
61 57 20
61 58 12
61 59 7
61 60 27
62 0 38
62 1 6
62 2 28
62 3 8
62 4 18
62 5 15
62 6 35
62 7 13
62 8 2
62 9 35
62 10 9
62 11 24
62 12 3
62 13 5
62 14 22
62 15 3
62 16 25
62 17 28
62 18 24
62 19 26
62 20 35
62 21 13
62 22 7
62 23 6
62 24 2
62 25 21
62 26 8
62 27 1
62 28 40
62 29 37
62 30 32
62 31 11
62 32 28
62 33 7
62 34 34
62 35 15
62 36 2
62 37 35
62 38 30
62 39 35
62 40 40
62 41 32
62 42 1
62 43 2
62 44 16
62 45 26
62 46 34
62 47 38
62 48 21
62 49 1
62 50 17
62 51 17
62 52 8
62 53 39
62 54 33
62 55 16
62 56 28
62 57 32
62 58 9
62 59 1
62 60 36
62 61 39
63 0 35
63 1 31
63 2 22
63 3 31
63 4 19
63 5 19
63 6 18
63 7 29
63 8 27
63 9 33
63 10 4
63 11 15
63 12 10
63 13 7
63 14 34
63 15 12
63 16 13
63 17 8
63 18 30
63 19 21
63 20 38
63 21 32
63 22 27
63 23 1
63 24 25
63 25 38
63 26 16
63 27 39
63 28 20
63 29 19
63 30 27
63 31 11
63 32 24
63 33 17
63 34 15
63 35 18
63 36 16
63 37 29
63 38 19
63 39 23
63 40 6
63 41 30
63 42 13
63 43 4
63 44 38
63 45 17
63 46 18
63 47 8
63 48 35
63 49 29
63 50 33
63 51 37
63 52 7
63 53 2
63 54 19
63 55 2
63 56 12
63 57 14
63 58 33
63 59 27
63 60 34
63 61 12
63 62 38
64 0 40
64 1 2
64 2 34
64 3 38
64 4 19
64 5 25
64 6 36
64 7 32
64 8 23
64 9 18
64 10 4
64 11 28
64 12 38
64 13 28
64 14 25
64 15 25
64 16 8
64 17 4
64 18 32
64 19 15
64 20 10
64 21 37
64 22 32
64 23 34
64 24 21
64 25 2
64 26 37
64 27 35
64 28 18
64 29 19
64 30 32
64 31 3
64 32 17
64 33 25
64 34 35
64 35 14
64 36 30
64 37 30
64 38 2
64 39 13
64 40 13
64 41 40
64 42 1
64 43 25
64 44 12
64 45 3
64 46 3
64 47 25
64 48 33
64 49 24
64 50 35
64 51 21
64 52 25
64 53 18
64 54 4
64 55 18
64 56 33
64 57 36
64 58 27
64 59 4
64 60 29
64 61 6
64 62 26
64 63 14
65 0 1
65 1 17
65 2 24
65 3 14
65 4 34
65 5 16
65 6 24
65 7 23
65 8 28
65 9 34
65 10 16
65 11 12
65 12 33
65 13 39
65 14 11
65 15 40
65 16 5
65 17 13
65 18 23
65 19 14
65 20 7
65 21 26
65 22 8
65 23 32
65 24 5
65 25 9
65 26 10
65 27 40
65 28 26
65 29 30
65 30 29
65 31 22
65 32 7
65 33 29
65 34 5
65 35 37
65 36 30
65 37 27
65 38 5
65 39 5
65 40 32
65 41 39
65 42 22
65 43 8
65 44 17
65 45 4
65 46 36
65 47 34
65 48 24
65 49 7
65 50 22
65 51 9
65 52 40
65 53 23
65 54 20
65 55 26
65 56 8
65 57 40
65 58 30
65 59 23
65 60 4
65 61 28
65 62 39
65 63 14
65 64 7
66 0 12
66 1 25
66 2 18
66 3 33
66 4 17
66 5 13
66 6 2
66 7 36
66 8 32
66 9 17
66 10 15
66 11 5
66 12 14
66 13 31
66 14 17
66 15 3
66 16 7
66 17 15
66 18 10
66 19 1
66 20 34
66 21 19
66 22 16
66 23 18
66 24 14
66 25 30
66 26 23
66 27 19
66 28 8
66 29 19
66 30 26
66 31 7
66 32 33
66 33 3
66 34 14
66 35 33
66 36 33
66 37 38
66 38 8
66 39 10
66 40 17
66 41 7
66 42 39
66 43 37
66 44 8
66 45 24
66 46 17
66 47 28
66 48 2
66 49 20
66 50 26
66 51 38
66 52 39
66 53 22
66 54 23
66 55 32
66 56 35
66 57 7
66 58 1
66 59 26
66 60 34
66 61 7
66 62 38
66 63 1
66 64 17
66 65 14
67 0 13
67 1 25
67 2 26
67 3 23
67 4 31
67 5 4
67 6 12
67 7 16
67 8 21
67 9 33
67 10 5
67 11 3
67 12 13
67 13 31
67 14 24
67 15 5
67 16 10
67 17 4
67 18 33
67 19 1
67 20 3
67 21 20
67 22 2
67 23 4
67 24 26
67 25 36
67 26 34
67 27 35
67 28 37
67 29 6
67 30 35
67 31 39
67 32 33
67 33 9
67 34 30
67 35 28
67 36 24
67 37 21
67 38 14
67 39 29
67 40 17
67 41 26
67 42 1
67 43 26
67 44 1
67 45 25
67 46 40
67 47 4
67 48 32
67 49 16
67 50 4
67 51 39
67 52 30
67 53 6
67 54 28
67 55 33
67 56 6
67 57 32
67 58 25
67 59 7
67 60 27
67 61 23
67 62 7
67 63 5
67 64 20
67 65 26
67 66 16
68 0 19
68 1 24
68 2 13
68 3 22
68 4 1
68 5 14
68 6 35
68 7 24
68 8 19
68 9 38
68 10 25
68 11 15
68 12 35
68 13 14
68 14 8
68 15 22
68 16 8
68 17 28
68 18 22
68 19 13
68 20 25
68 21 29
68 22 5
68 23 1
68 24 12
68 25 8
68 26 29
68 27 35
68 28 17
68 29 19
68 30 36
68 31 31
68 32 30
68 33 5
68 34 40
68 35 14
68 36 2
68 37 24
68 38 31
68 39 29
68 40 13
68 41 29
68 42 40
68 43 2
68 44 14
68 45 31
68 46 11
68 47 23
68 48 40
68 49 29
68 50 25
68 51 23
68 52 31
68 53 16
68 54 28
68 55 34
68 56 2
68 57 30
68 58 14
68 59 18
68 60 2
68 61 38
68 62 27
68 63 12
68 64 34
68 65 21
68 66 25
68 67 38
69 0 20
69 1 22
69 2 3
69 3 38
69 4 20
69 5 17
69 6 31
69 7 1
69 8 32
69 9 4
69 10 26
69 11 21
69 12 10
69 13 28
69 14 10
69 15 24
69 16 17
69 17 20
69 18 17
69 19 9
69 20 27
69 21 12
69 22 19
69 23 32
69 24 17
69 25 16
69 26 23
69 27 4
69 28 23
69 29 15
69 30 28
69 31 32
69 32 37
69 33 3
69 34 39
69 35 35
69 36 28
69 37 40
69 38 27
69 39 19
69 40 32
69 41 38
69 42 22
69 43 4
69 44 7
69 45 1
69 46 14
69 47 20
69 48 17
69 49 1
69 50 3
69 51 40
69 52 34
69 53 39
69 54 11
69 55 24
69 56 9
69 57 4
69 58 27
69 59 14
69 60 6
69 61 37
69 62 7
69 63 39
69 64 21
69 65 36
69 66 3
69 67 18
69 68 1
